DATASET = "thpack4";
INSTANCE = "074";

WIDTH = 233;
HEIGHT = 220;
LENGTH = 587;

NO_OF_SHAPES = 10;
size = [|
  86,79,69 |
  53,46,31 |
  96,51,37 |
  119,55,54 |
  77,74,37 |
  96,73,24 |
  75,67,54 |
  88,71,61 |
  120,93,46 |
  104,70,69 |
|];

verticality = [|
  1,1,1 |
  1,1,1 |
  0,1,1 |
  0,1,1 |
  0,0,1 |
  0,0,1 |
  1,1,1 |
  1,1,1 |
  0,0,1 |
  1,1,1 |
|];

box_count = [
  8,
  7,
  9,
  11,
  9,
  7,
  12,
  5,
  14,
  9,
];
